/*********************************************
 * OPL 12.6.0.0 Data
 * Author: Adrian Rodriguez Bazaga, Pau Rodriguez Esmerats
 * Creation Date: 06/12/2017 at 23:03:00
 *********************************************/

nNurses=188;
maxConsec=2;
maxPresence=7;
maxHours=5;
minHours=1;
hours=24;
demand= [36 32 52 50 32 52 50 35 33 19 2 6 2 6 2 3 0 1 0 0 30 55 25 51  ];
